solution status: optimal solution found
objective value:                                    0
$_285_y                                            18 	(obj:0)
$_285_z                                            13 	(obj:0)
$_50_y                                             12 	(obj:0)
$_50_z                                             11 	(obj:0)
$_259_y                                            18 	(obj:0)
$_259_z                                            16 	(obj:0)
$_72_y                                             11 	(obj:0)
$_72_z                                              6 	(obj:0)
$_153_y                                            18 	(obj:0)
$_153_z                                            17 	(obj:0)
$_139_y                                            16 	(obj:0)
$_139_z                                            14 	(obj:0)
$_177_y                                            20 	(obj:0)
$_177_z                                            18 	(obj:0)
$_194_y                                            17 	(obj:0)
$_194_z                                            17 	(obj:0)
$_217_y                                            15 	(obj:0)
$_217_z                                            14 	(obj:0)
$_235_y                                            18 	(obj:0)
$_235_z                                            14 	(obj:0)
$_138_y                                            14 	(obj:0)
$_138_z                                             9 	(obj:0)
$_276_y                                            17 	(obj:0)
$_276_z                                            12 	(obj:0)
$_176_y                                            17 	(obj:0)
$_176_z                                            14 	(obj:0)
$_218_y                                            19 	(obj:0)
$_218_z                                            18 	(obj:0)
$_47_y                                             14 	(obj:0)
$_47_z                                             12 	(obj:0)
$_69_y                                             12 	(obj:0)
$_69_z                                              7 	(obj:0)
$_258_y                                            14 	(obj:0)
$_258_z                                            13 	(obj:0)
